
Gurobi 9.5.1 (mac64[x86]) logging started Wed Nov 16 13:45:31 2022

Set parameter LogFile to value "/Users/keyvanmajd/Documents/NNRepLayer/demos/examples/tc7_walking_example/repair_bound_constraint/repair_net/logs/opt_log_11_16_2022_13_45_12.log"
Gurobi Optimizer version 9.5.1 build v9.5.1rc2 (mac64[x86])
Thread count: 4 physical cores, 8 logical processors, using up to 8 threads
Optimize a model with 3094 rows, 2121 columns and 9765 nonzeros
Model fingerprint: 0x28c9fa82
Model has 500 quadratic objective terms
Variable types: 1321 continuous, 800 integer (800 binary)
Coefficient statistics:
  Matrix range     [1e-03, 2e+03]
  Objective range  [2e-05, 1e+00]
  QObjective range [2e-02, 2e-02]
  Bounds range     [1e+00, 7e+03]
  RHS range        [3e-03, 2e+03]
Presolve removed 280 rows and 63 columns
Presolve time: 0.01s

Explored 0 nodes (0 simplex iterations) in 0.01 seconds (0.00 work units)
Thread count was 1 (of 8 available processors)

Solution count 0

Model is infeasible
Best objective -, best bound -, gap -
